hw5/q5.in

assign(max_seconds,5).


formulas(assumptions).
    m(m(x,y),z) = m(x,m(y,z)).    % m is associative
    m(x,e) = x.                   % e is a right identity
    m(x,i(x)) = e.                % i(x) is right inverse of x
end_of_list.

formulas(goals).

    m(x,y) = m(y,x).

end_of_list.